
List of user-set options:

                                    Name   Value                used
                           compl_inf_tol = 1                     yes
                         constr_viol_tol = 1                     yes
                            dual_inf_tol = 1000                  yes
                           linear_solver = ma97                  yes
                              ma86_small = 1e-30                  no
                                  ma86_u = 0.0001                 no
                              ma97_order = best                  yes
                              ma97_small = 1e-30                 yes
                            ma97_switch1 = at_start              yes
                            ma97_switch2 = od_hd_reuse           yes
                                  ma97_u = 1e-06                 yes
                               ma97_umax = 0.5                   yes
                                max_iter = 1000                  yes
                    max_refinement_steps = 20                    yes
                    min_refinement_steps = 5                     yes
                                 mu_init = 1e-06                 yes
           mu_superlinear_decrease_power = 1.25                  yes
                   nlp_scaling_min_value = 1e-08                 yes
                        option_file_name = Preset_Case:_802_NCP.opt  yes
                             output_file = ./tmp/Preset_Case:_802_NCP.output  yes
                      print_user_options = yes                   yes
        required_infeasibility_reduction = 1                      no
                                     tol = 1e-08                 yes
                   warm_start_bound_frac = 1e-20                 yes
                   warm_start_bound_push = 1e-20                 yes
                   warm_start_init_point = yes                   yes
              warm_start_mult_bound_push = 1e-20                 yes
                warm_start_mult_init_max = 1e+40                 yes
             warm_start_slack_bound_frac = 1e-20                 yes
             warm_start_slack_bound_push = 1e-20                 yes

******************************************************************************
This program contains Ipopt, a library for large-scale nonlinear optimization.
 Ipopt is released as open source code under the Eclipse Public License (EPL).
         For more information visit http://projects.coin-or.org/Ipopt
******************************************************************************

This is Ipopt version 3.12.10, running with linear solver ma97.

Number of nonzeros in equality constraint Jacobian...:   117167
Number of nonzeros in inequality constraint Jacobian.:      213
Number of nonzeros in Lagrangian Hessian.............:    47513

Total number of variables............................:    29977
                     variables with only lower bounds:    11312
                variables with lower and upper bounds:    15135
                     variables with only upper bounds:        0
Total number of equality constraints.................:    29864
Total number of inequality constraints...............:       25
        inequality constraints with only lower bounds:        4
   inequality constraints with lower and upper bounds:        0
        inequality constraints with only upper bounds:       21

iter    objective    inf_pr   inf_du lg(mu)  ||d||  lg(rg) alpha_du alpha_pr  ls
   0 -1.9092566e-01 1.58e-01 2.00e+00  -6.0 0.00e+00    -  0.00e+00 0.00e+00   0
In iteration 0, 9 Slacks too small, adjusting variable bounds
   1 -1.9092566e-01 1.58e-01 1.45e+03  -6.0 1.17e+10    -  1.45e-13 3.01e-19h  1
   2 -1.9092524e-01 1.58e-01 1.45e+03  -6.0 1.39e+02    -  2.69e-07 7.14e-06f  1
   3 -1.9092517e-01 1.58e-01 1.44e+03  -6.0 1.15e+02    -  2.32e-02 1.09e-06h  2
   4 -1.9092241e-01 1.58e-01 1.44e+03  -6.0 1.42e+02    -  6.74e-04 4.38e-05h  1
   5 -1.9054084e-01 1.57e-01 1.44e+03  -6.0 1.27e+02    -  3.42e-03 6.95e-03h  1
   6 -1.8979649e-01 1.55e-01 1.43e+03  -6.0 2.00e+02    -  6.27e-03 1.20e-02h  2
   7 -1.8905903e-01 1.53e-01 1.40e+03  -6.0 1.44e+02    -  1.96e-02 1.28e-02h  3
   8 -1.8835808e-01 1.52e-01 1.38e+03  -6.0 1.53e+02    -  2.77e-02 1.23e-02h  3
   9 -1.8770302e-01 1.50e-01 1.36e+03  -6.0 1.54e+02    -  2.69e-02 1.16e-02h  3
iter    objective    inf_pr   inf_du lg(mu)  ||d||  lg(rg) alpha_du alpha_pr  ls
  10 -1.8649490e-01 1.47e-01 1.32e+03  -6.0 1.53e+02    -  5.41e-02 2.19e-02h  2
  11 -1.8532156e-01 1.43e-01 1.27e+03  -6.0 1.51e+02    -  7.93e-02 2.19e-02h  1
  12 -1.8428778e-01 1.40e-01 1.22e+03  -6.0 1.53e+02    -  9.46e-02 2.02e-02h  1
  13 -1.8428472e-01 1.40e-01 3.43e+05  -6.0 1.70e+02    -  3.04e-02 6.81e-05h  1
  14 -1.8335988e-01 1.38e-01 8.45e+05  -6.0 1.76e+02    -  6.83e-02 1.94e-02h  3
  15 -1.8253201e-01 1.35e-01 9.99e+05  -6.0 1.64e+02    -  3.58e-02 1.82e-02h  4
  16 -1.8192397e-01 1.33e-01 9.48e+05  -6.0 1.55e+02    -  8.31e-03 1.34e-02h  5
  17 -1.8133302e-01 1.32e-01 9.35e+05  -6.0 1.52e+02    -  1.33e-02 1.33e-02h  5
  18 -1.8075935e-01 1.30e-01 1.39e+06  -6.0 1.48e+02    -  7.53e-02 1.32e-02h  5
  19 -1.8018881e-01 1.28e-01 1.67e+06  -6.0 1.46e+02    -  5.56e-02 1.33e-02h  5
iter    objective    inf_pr   inf_du lg(mu)  ||d||  lg(rg) alpha_du alpha_pr  ls
  20 -1.7962401e-01 1.26e-01 2.37e+06  -6.0 1.45e+02    -  1.24e-01 1.34e-02h  5
  21 -1.7904154e-01 1.25e-01 2.75e+06  -6.0 1.45e+02    -  8.78e-02 1.39e-02h  5
  22 -1.7844557e-01 1.23e-01 4.01e+06  -6.0 1.44e+02    -  2.58e-01 1.44e-02h  5
  23 -1.7841674e-01 1.23e-01 4.31e+06  -6.0 1.46e+02    -  7.90e-02 6.64e-04h  1
  24 -1.7806015e-01 1.22e-01 5.27e+06  -6.0 1.48e+02    -  2.76e-01 7.99e-03h  5
  25 -1.7758676e-01 1.21e-01 5.41e+06  -6.0 1.71e+02    -  8.34e-02 9.29e-03h  3
  26 -1.7729164e-01 1.20e-01 5.75e+06  -6.0 1.93e+02    -  1.72e-01 5.70e-03h  3
  27 -1.7693574e-01 1.19e-01 5.94e+06  -6.0 2.41e+02    -  1.37e-01 6.37e-03h  2
  28 -1.7664968e-01 1.19e-01 6.03e+06  -6.0 1.87e+02    -  1.06e-01 4.82e-03h  3
  29 -1.7622953e-01 1.18e-01 6.15e+06  -6.0 2.38e+02    -  1.80e-01 6.96e-03h  4
iter    objective    inf_pr   inf_du lg(mu)  ||d||  lg(rg) alpha_du alpha_pr  ls
  30 -1.7594384e-01 1.17e-01 6.16e+06  -6.0 2.85e+02    -  9.09e-02 4.75e-03h  4
  31 -1.7570297e-01 1.17e-01 6.19e+06  -6.0 3.06e+02    -  1.92e-01 4.12e-03h  4
  32 -1.7532709e-01 1.16e-01 7.02e+06  -6.0 4.19e+01  -2.0 2.50e-02 1.03e-02h  3
  33 -1.7504659e-01 1.15e-01 7.26e+06  -6.0 4.66e+01  -2.5 2.09e-02 7.35e-03h  5
  34 -1.6743162e-01 1.76e+00 4.48e+06  -6.0 5.33e+01  -3.0 2.15e-02 1.91e-01w  1
  35 -1.6658757e-01 1.81e+00 4.32e+06  -6.0 9.16e+01  -3.4 4.26e-07 4.70e-02w  1
  36 -1.6348846e-01 2.54e+00 3.90e+06  -6.0 4.58e+01  -3.0 2.49e-01 1.78e-01w  1
  37 -1.7480862e-01 1.14e-01 7.35e+06  -6.0 1.59e+02  -3.5 2.15e-02 5.96e-03h  5
  38 -1.7456461e-01 1.13e-01 7.38e+06  -6.0 5.40e+01  -3.1 1.80e-02 6.07e-03h  5
  39 -1.7430764e-01 1.13e-01 8.11e+06  -6.0 4.90e+01  -2.6 5.62e-02 7.03e-03h  5
iter    objective    inf_pr   inf_du lg(mu)  ||d||  lg(rg) alpha_du alpha_pr  ls
  40 -1.7405995e-01 1.12e-01 8.14e+06  -6.0 5.48e+01  -3.1 2.37e-02 6.25e-03h  5
  41 -1.7380540e-01 1.11e-01 9.58e+06  -6.0 5.00e+01  -2.7 1.16e-01 7.08e-03h  5
  42 -1.7361861e-01 1.11e-01 9.62e+06  -6.0 6.71e+01  -3.2 4.28e-02 4.71e-03h  6
  43 -1.7332956e-01 1.10e-01 1.02e+07  -6.0 5.17e+01  -2.7 6.38e-02 7.90e-03h  5
  44 -1.7323113e-01 1.09e-01 1.02e+07  -6.0 9.14e+01  -3.2 4.89e-02 2.70e-03h  7
  45 -1.7288209e-01 1.08e-01 1.05e+07  -6.0 5.24e+01  -2.8 5.53e-02 9.45e-03h  5
  46 -1.7281718e-01 1.08e-01 1.04e+07  -6.0 1.58e+02  -3.3 2.72e-02 2.10e-03h  2
  47 -1.6593126e-01 1.74e+00 7.07e+06  -6.0 5.24e+01  -2.8 4.81e-03 1.88e-01w  1
  48 -1.6577961e-01 1.73e+00 1.40e+07  -6.0 3.66e+01  -2.4 3.50e-01 8.52e-03w  1
  49 -1.6241729e-01 2.70e+00 1.18e+07  -6.0 4.89e+01  -2.9 7.95e-04 1.86e-01w  1
iter    objective    inf_pr   inf_du lg(mu)  ||d||  lg(rg) alpha_du alpha_pr  ls
  50 -1.7260200e-01 1.07e-01 1.03e+07  -6.0 2.90e+01  -2.5 4.81e-03 5.87e-03h  5
  51 -1.7235436e-01 1.07e-01 1.12e+07  -6.0 5.31e+01  -2.9 1.92e-01 6.73e-03h  6
  52 -1.7213445e-01 1.06e-01 1.12e+07  -6.0 4.82e+01  -2.5 9.58e-03 6.41e-03h  5
  53 -1.7199136e-01 1.06e-01 1.18e+07  -6.0 5.72e+01  -3.0 2.15e-01 3.82e-03h  7
  54 -1.7176224e-01 1.05e-01 1.19e+07  -6.0 4.91e+01  -2.6 1.99e-02 6.59e-03h  5
  55 -1.7154332e-01 1.04e-01 1.20e+07  -6.0 7.37e+01  -3.0 1.04e-01 5.77e-03h  6
  56 -1.7128706e-01 1.04e-01 1.23e+07  -6.0 4.94e+01  -2.6 3.67e-02 7.44e-03h  5
  57 -1.7114262e-01 1.03e-01 1.21e+07  -6.0 9.77e+01  -3.1 1.27e-01 4.03e-03h  5
  58 -1.7083307e-01 1.02e-01 1.25e+07  -6.0 4.94e+01  -2.7 5.24e-02 9.02e-03h  5
  59 -1.7075696e-01 1.02e-01 1.23e+07  -6.0 1.38e+02  -3.1 2.61e-02 2.43e-03h  5
iter    objective    inf_pr   inf_du lg(mu)  ||d||  lg(rg) alpha_du alpha_pr  ls
  60 -1.6418301e-01 1.74e+00 1.07e+07  -6.0 4.95e+01  -2.7 2.71e-01 1.93e-01w  1
  61 -1.5876734e-01 3.44e+00 9.59e+06  -6.0 6.32e+01  -3.2 1.77e-06 2.14e-01w  1
  62 -1.5872795e-01 3.43e+00 8.66e+06  -6.0 6.40e+01  -3.7 1.01e-01 2.61e-03w  1
  63 -1.7055152e-01 1.01e-01 1.46e+07  -6.0 2.96e+01  -3.2 2.71e-01 6.03e-03h  5
  64 -1.7038928e-01 1.01e-01 1.55e+07  -6.0 5.14e+01  -2.8 2.26e-01 4.37e-03h  7
  65 -1.7018188e-01 1.00e-01 1.97e+07  -6.0 4.69e+01  -2.4 2.10e-01 6.29e-03h  5
  66 -1.7001193e-01 9.99e-02 1.92e+07  -6.0 5.92e+01  -2.9 2.11e-01 4.21e-03h  7
  67 -1.6979292e-01 9.92e-02 2.00e+07  -6.0 4.89e+01  -2.4 6.45e-02 6.29e-03h  5
  68 -1.6952119e-01 9.86e-02 1.83e+07  -6.0 7.03e+01  -2.9 4.30e-01 6.67e-03h  6
  69 -1.6927759e-01 9.79e-02 1.92e+07  -6.0 4.82e+01  -2.5 7.88e-02 6.87e-03h  5
iter    objective    inf_pr   inf_du lg(mu)  ||d||  lg(rg) alpha_du alpha_pr  ls
  70 -1.6897876e-01 9.72e-02 1.88e+07  -6.0 8.22e+01  -3.0 6.01e-02 7.33e-03h  5
  71 -1.6868571e-01 9.64e-02 2.23e+07  -6.0 4.82e+01  -2.5 3.36e-01 8.29e-03h  5
  72 -1.6860086e-01 9.62e-02 2.19e+07  -6.0 1.03e+02  -3.0 3.74e-02 2.08e-03h  6
  73 -1.6268004e-01 1.24e+00 1.86e+07  -6.0 4.92e+01  -2.6 1.84e-01 1.57e-01w  1
  74 -1.5634925e-01 3.24e+00 1.71e+07  -6.0 6.18e+01  -3.1 1.62e-06 2.21e-01w  1
  75 -1.5308478e-01 2.87e+00 1.28e+07  -6.0 8.93e+01  -3.6 2.57e-01 1.30e-01w  1
  76 -1.6841583e-01 9.57e-02 2.29e+07  -6.0 5.37e+01  -3.1 1.84e-01 4.92e-03h  5
  77 -1.6821960e-01 9.52e-02 2.38e+07  -6.0 4.95e+01  -2.7 6.09e-01 4.89e-03h  7
  78 -1.6816104e-01 9.51e-02 2.35e+07  -6.0 2.00e+02  -3.2 1.20e-02 1.82e-03h  5
  79 -1.6790625e-01 9.45e-02 2.31e+07  -6.0 4.85e+01  -2.8 6.76e-01 5.85e-03h  7
iter    objective    inf_pr   inf_du lg(mu)  ||d||  lg(rg) alpha_du alpha_pr  ls
  80 -1.6775213e-01 9.42e-02 2.27e+07  -6.0 1.34e+02  -3.2 2.34e-02 3.32e-03h  4
  81 -1.6745068e-01 9.36e-02 2.20e+07  -6.0 4.69e+01  -2.8 5.80e-01 6.44e-03h  7
  82 -1.6729389e-01 9.33e-02 2.10e+07  -6.0 7.45e+01  -3.3 8.86e-02 2.74e-03h  4
  83 -1.6697404e-01 9.29e-02 1.61e+07  -6.0 1.39e+02  -3.8 3.01e-01 4.23e-03h  1
  84 -1.6676735e-01 9.25e-02 1.58e+07  -6.0 6.76e+01  -3.3 8.77e-02 4.66e-03h  6
  85 -1.6682842e-01 9.40e-02 1.56e+07  -6.0 2.67e+02  -3.8 3.65e-03 1.46e-02h  4
  86 -1.6669278e-01 9.44e-02 1.52e+07  -6.0 9.85e+01  -3.4 9.71e-02 4.63e-03h  6
  87 -1.6765247e-01 9.44e-02 1.52e+07  -6.0 4.03e+03  -3.9 4.45e-04 8.09e-04h  3
  88 -1.6756374e-01 9.53e-02 1.43e+07  -6.0 1.29e+02  -3.4 2.03e-01 6.18e-03h  4
  89 -1.6730801e-01 9.65e-02 1.44e+07  -6.0 4.47e+01  -3.0 1.18e-01 6.81e-03h  5
iter    objective    inf_pr   inf_du lg(mu)  ||d||  lg(rg) alpha_du alpha_pr  ls
  90 -1.6717809e-01 9.91e-02 1.36e+07  -6.0 1.42e+02  -3.5 2.04e-01 9.60e-03h  5
  91 -1.6675448e-01 1.03e-01 1.44e+07  -6.0 4.45e+01  -3.1 3.91e-01 1.11e-02h  4
  92 -1.6669871e-01 1.04e-01 1.39e+07  -6.0 1.61e+02  -3.5 1.22e-01 7.14e-03h  5
  93 -1.6637547e-01 1.07e-01 1.54e+07  -6.0 4.70e+01  -3.1 9.26e-01 8.46e-03h  4
  94 -1.6766456e-01 6.77e-01 1.40e+07  -6.0 2.12e+02  -3.6 1.90e-02 1.19e-01w  1
  95 -1.6963974e-01 1.27e+00 1.13e+07  -6.0 8.70e+01  -3.2 1.39e-01 1.93e-01w  1
  96 -1.7113262e-01 1.23e+00 1.05e+07  -6.0 6.38e+01  -2.7 7.55e-06 4.79e-02w  1
  97 -1.6645604e-01 1.08e-01 1.52e+07  -6.0 2.48e+01  -3.2 1.90e-02 7.43e-03h  4
  98 -1.6621023e-01 1.09e-01 2.15e+07  -6.0 4.29e+01  -2.8 8.52e-01 7.10e-03h  4
  99 -1.6597018e-01 1.10e-01 1.96e+07  -6.0 7.10e+01  -3.3 3.13e-01 6.59e-03h  5
iter    objective    inf_pr   inf_du lg(mu)  ||d||  lg(rg) alpha_du alpha_pr  ls
 100 -1.6558256e-01 1.13e-01 2.23e+07  -6.0 3.55e+01  -2.8 7.24e-01 1.15e-02h  1
 101 -1.6531217e-01 1.14e-01 2.07e+07  -6.0 9.24e+01  -3.3 3.61e-01 9.60e-03h  3
 102 -1.6530583e-01 1.14e-01 2.64e+07  -6.0 4.22e+01  -2.9 1.00e+00 2.07e-04h  1
 103 -1.6513754e-01 1.14e-01 2.52e+07  -6.0 1.12e+02  -3.4 7.65e-01 6.76e-03h  5
 104 -1.6480189e-01 1.15e-01 3.58e+07  -6.0 5.07e+01  -2.9 1.00e+00 1.16e-02h  5
 105 -1.6443528e-01 1.17e-01 3.70e+07  -6.0 1.23e+02  -3.4 7.22e-01 1.45e-02h  3
 106 -1.6396946e-01 1.21e-01 5.07e+07  -6.0 6.21e+01  -3.0 1.00e+00 1.91e-02h  3
 107 -1.6365957e-01 1.22e-01 5.22e+07  -6.0 1.63e+02  -3.5 5.20e-01 1.46e-02h  2
 108 -1.6415828e-01 1.24e-01 5.10e+07  -6.0 5.28e+02  -3.9 6.35e-02 1.23e-02h  5
 109 -1.6404890e-01 1.25e-01 5.40e+07  -6.0 2.17e+02  -3.5 5.57e-01 1.45e-02h  5
iter    objective    inf_pr   inf_du lg(mu)  ||d||  lg(rg) alpha_du alpha_pr  ls
 110 -1.6362744e-01 1.27e-01 7.17e+07  -6.0 9.46e+01  -3.1 1.00e+00 1.78e-02h  5
 111 -1.6326458e-01 1.27e-01 7.02e+07  -6.0 3.03e+02  -3.6 3.03e-01 1.95e-02h  5
 112 -1.6279430e-01 1.28e-01 8.51e+07  -6.0 1.25e+02  -3.1 8.69e-01 1.86e-02h  5
 113 -1.6067984e-01 1.40e+00 5.85e+07  -6.0 3.91e+02  -3.6 2.24e-01 3.22e-01w  1
 114 -1.6181102e-01 9.33e-01 3.09e+07  -6.0 2.49e+01  -2.3 4.01e-01 4.37e-01w  1
 115 -1.6223482e-01 9.32e-01 3.09e+07  -6.0 5.49e+02  -2.8 4.71e-06 1.41e-03w  1
 116 -1.6266215e-01 1.28e-01 8.19e+07  -6.0 1.10e+02  -3.2 2.24e-01 2.01e-02h  4
 117 -1.6294852e-01 1.28e-01 8.14e+07  -6.0 8.50e+02  -3.7 1.90e-02 2.62e-03h  6
 118 -1.6252593e-01 1.28e-01 9.29e+07  -6.0 1.89e+02  -3.3 1.00e+00 2.03e-02h  5
 119 -1.6185998e-01 1.30e-01 1.20e+08  -6.0 8.45e+01  -2.9 1.00e+00 2.60e-02h  5
iter    objective    inf_pr   inf_du lg(mu)  ||d||  lg(rg) alpha_du alpha_pr  ls
 120 -1.6128146e-01 1.31e-01 1.16e+08  -6.0 2.60e+02  -3.3 5.23e-01 3.33e-02h  4
 121 -1.6045731e-01 1.34e-01 1.41e+08  -6.0 1.06e+02  -2.9 1.00e+00 3.73e-02h  4
 122 -1.6076471e-01 1.34e-01 1.38e+08  -6.0 3.69e+02  -3.4 1.34e-01 2.05e-02h  5
 123 -1.6006844e-01 1.36e-01 1.58e+08  -6.0 1.29e+02  -3.0 1.00e+00 3.99e-02h  4
 124 -1.5959630e-01 1.36e-01 2.04e+08  -6.0 5.70e+01  -2.5 1.00e+00 2.54e-02h  5
 125 -1.5914256e-01 1.34e-01 2.01e+08  -6.0 1.69e+02  -3.0 5.23e-01 2.90e-02h  4
 126 -1.5359588e-01 4.48e-01 1.69e+08  -6.0 6.99e+01  -2.6 1.00e+00 3.15e-01w  1
 127 -1.5124281e-01 4.29e-01 4.88e+07  -6.0 1.80e+01  -2.2 6.15e-01 6.85e-01w  1
 128 -1.5346101e-01 4.08e-01 7.36e+07  -6.0 6.12e+01  -2.6 1.96e-05 4.82e-02w  1
 129 -1.5844922e-01 1.35e-01 2.37e+08  -6.0 3.13e+02  -3.1 1.00e+00 3.94e-02h  3
iter    objective    inf_pr   inf_du lg(mu)  ||d||  lg(rg) alpha_du alpha_pr  ls
 130 -1.5796322e-01 1.33e-01 2.54e+08  -6.0 9.22e+01  -2.7 7.45e-01 2.95e-02h  4
 131 -1.5860042e-01 1.33e-01 2.53e+08  -6.0 7.03e+02  -3.2 1.04e-02 3.70e-03h  5
 132 -1.5811917e-01 1.32e-01 2.73e+08  -6.0 1.08e+02  -2.8 1.00e+00 3.88e-02h  4
 133 -1.5746704e-01 1.32e-01 3.21e+08  -6.0 4.54e+01  -2.3 1.00e+00 4.96e-02h  4
 134 -1.5692210e-01 1.32e-01 3.05e+08  -6.0 1.24e+02  -2.8 1.00e+00 6.32e-02h  3
 135 -1.5621584e-01 1.32e-01 3.31e+08  -6.0 4.64e+01  -2.4 1.00e+00 7.34e-02h  3
 136 -1.5715843e-01 1.38e-01 3.04e+08  -6.0 1.41e+02  -2.9 1.98e-01 8.40e-02h  3
 137 -1.5680003e-01 1.15e-01 1.69e+08  -6.0 4.40e+01  -2.4 4.07e-01 4.40e-01H  1
 138r-1.5680003e-01 1.15e-01 1.00e+03  -1.4 0.00e+00  -2.9 0.00e+00 3.95e-07R  4
 139r-1.5628928e-01 1.13e-01 1.17e+03  -1.4 2.93e+04    -  1.03e-04 1.85e-05f  1
iter    objective    inf_pr   inf_du lg(mu)  ||d||  lg(rg) alpha_du alpha_pr  ls
 140 -1.5628078e-01 1.13e-01 6.79e+00  -6.0 1.64e+02    -  1.47e-04 1.14e-03h  1
 141 -1.5627636e-01 1.13e-01 5.42e+04  -6.0 1.15e+02    -  1.57e-03 1.17e-03h  1
 142 -1.5615196e-01 1.12e-01 1.32e+05  -6.0 2.75e+01    -  1.80e-03 1.75e-02h  1
 143 -1.5581391e-01 1.10e-01 4.93e+05  -6.0 2.89e+01    -  2.54e-02 4.67e-02h  1
 144 -1.5544557e-01 1.08e-01 8.00e+05  -6.0 2.73e+01    -  3.34e-02 5.32e-02h  1
 145 -1.5541428e-01 1.08e-01 1.81e+06  -6.0 2.52e+01    -  1.57e-01 4.87e-03h  1
 146 -1.5450409e-01 1.20e-01 7.06e+03  -6.0 2.46e+01    -  1.47e-02 1.40e-01h  2
 147 -1.5326198e-01 1.40e-01 1.76e+06  -6.0 1.98e+01    -  3.49e-01 2.30e-01h  1
 148 -1.5201177e-01 1.07e-01 2.55e+06  -6.0 1.74e+01    -  3.82e-01 2.78e-01h  1
 149 -1.4953779e-01 3.89e-02 3.65e+06  -6.0 1.19e+01    -  4.01e-01 7.43e-01h  1
iter    objective    inf_pr   inf_du lg(mu)  ||d||  lg(rg) alpha_du alpha_pr  ls
 150r-1.4953779e-01 3.89e-02 1.00e+03  -1.6 0.00e+00    -  0.00e+00 4.06e-07R  2
 151r-1.4941706e-01 3.75e-02 1.00e+03  -1.6 2.86e+04    -  8.44e-05 7.59e-05f  1
 152 -1.4905707e-01 2.74e-03 6.36e+06  -6.0 2.26e+00    -  3.26e-01 1.00e+00h  1
 153 -1.4931505e-01 1.66e-04 2.40e+05  -6.0 8.88e-01    -  9.22e-01 1.00e+00h  1
 154 -1.5026717e-01 2.39e-03 1.22e+05  -6.0 1.07e+01    -  4.92e-01 3.03e-01h  1
 155 -1.5538999e-01 8.81e-02 5.33e+04  -6.0 1.97e+01    -  5.65e-01 1.00e+00f  1
 156 -1.6091763e-01 5.73e-02 3.03e+04  -6.0 3.70e+01    -  4.33e-01 7.44e-01H  1
 157 -1.6965862e-01 1.27e-01 2.16e+04  -6.0 5.06e+01    -  2.85e-01 9.65e-01H  1
 158 -1.7200774e-01 1.40e-01 8.84e+03  -6.0 7.05e+01    -  5.92e-01 2.82e-01h  2
 159 -1.7396521e-01 1.44e-01 5.11e+03  -6.0 1.76e+02    -  4.22e-01 1.47e-01h  2
iter    objective    inf_pr   inf_du lg(mu)  ||d||  lg(rg) alpha_du alpha_pr  ls
 160 -1.7568317e-01 1.38e-01 2.67e+03  -6.0 3.07e+02    -  4.76e-01 1.07e-01h  2
 161 -1.7947313e-01 2.06e-01 9.92e+02  -6.0 5.84e+02    -  6.29e-01 1.86e-01h  1
 162 -1.8714713e-01 2.25e+00 4.80e+02  -6.0 1.45e+03    -  5.16e-01 2.57e-01h  1
 163 -2.0754456e-01 2.66e+01 2.18e+02  -6.0 2.30e+03    -  5.47e-01 5.63e-01h  1
 164 -2.0745137e-01 2.54e+01 3.04e+04  -6.0 2.96e+00  -3.4 1.41e-03 4.72e-02h  1
 165 -2.0730739e-01 2.35e+01 2.91e+04  -6.0 2.55e+00  -3.9 1.18e-01 7.33e-02h  1
 166 -2.0626708e-01 9.76e+00 2.31e+04  -6.0 2.40e+00  -4.3 1.03e-01 5.85e-01h  1
 167 -2.0558949e-01 1.06e-02 3.35e+01  -6.0 9.92e-01  -4.8 8.05e-01 1.00e+00h  1
 168 -2.0568873e-01 1.40e-03 1.53e+01  -6.0 3.03e+00  -5.3 5.44e-01 1.00e+00h  1
 169 -2.0594903e-01 1.67e-02 6.02e-01  -6.0 9.15e+00  -5.8 9.61e-01 1.00e+00h  1
iter    objective    inf_pr   inf_du lg(mu)  ||d||  lg(rg) alpha_du alpha_pr  ls
 170 -2.0673992e-01 9.37e-03 1.33e+00  -6.0 2.86e+01  -6.2 7.27e-01 9.55e-01h  1
 171 -2.0743989e-01 4.05e-02 5.58e+00  -6.0 5.13e+01  -6.7 3.18e-01 1.00e+00f  1
 172 -2.0779077e-01 2.20e-02 3.18e+00  -6.0 2.89e+01  -6.3 1.00e+00 4.60e-01h  1
 173 -2.0870759e-01 9.45e-02 1.71e+00  -6.0 7.71e+01  -6.8 1.94e-01 3.95e-01f  1
 174 -2.0989777e-01 5.43e-01 2.67e+00  -6.0 5.75e+01  -6.3 1.00e+00 8.67e-01h  1
 175 -2.1117206e-01 5.27e-02 1.60e+00  -6.0 7.32e+01  -6.8 1.00e+00 1.00e+00h  1
 176 -2.1378294e-01 8.16e-02 2.08e+01  -6.0 2.47e+02  -7.3 1.00e+00 5.16e-01h  1
 177 -2.1510352e-01 2.17e-01 1.04e+01  -6.0 3.20e+02  -7.8 1.00e+00 3.09e-01h  1
 178 -2.1683152e-01 3.57e-01 7.95e+00  -6.0 6.65e+02  -8.3 1.02e-01 1.54e-01h  1
 179 -2.1886843e-01 5.31e-01 8.26e+00  -6.0 1.30e+03  -8.7 1.13e-01 9.16e-02h  1
iter    objective    inf_pr   inf_du lg(mu)  ||d||  lg(rg) alpha_du alpha_pr  ls
 180 -2.2122682e-01 7.80e-01 1.18e+01  -6.0 6.63e+02  -8.3 1.56e-01 2.24e-01h  1
 181 -2.2124050e-01 6.88e-01 5.75e+00  -6.0 1.52e+01  -6.1 9.55e-04 1.18e-01h  1
 182 -2.2125654e-01 5.57e-01 2.87e+01  -6.0 5.73e+00  -5.6 4.44e-01 1.91e-01h  1
 183 -2.2132887e-01 3.56e-01 2.73e+01  -6.0 7.82e+00  -6.1 9.32e-02 3.61e-01h  1
 184 -2.2143997e-01 1.85e+00 2.53e+01  -6.0 1.98e+02  -6.6 2.56e-02 4.47e-02h  1
 185 -2.2184086e-01 4.86e+00 1.67e+01  -6.0 5.85e+01  -7.1 3.67e-02 2.72e-01h  1
 186 -2.2244535e-01 9.17e+00 1.28e+01  -6.0 1.53e+02  -7.6 1.55e-01 1.78e-01h  1
 187 -2.2305321e-01 8.23e+00 1.80e+01  -6.0 4.17e+02  -8.0 9.13e-01 1.07e-01h  1
 188 -2.2588892e-01 6.58e+00 2.72e+01  -6.0 1.01e+03  -8.5 9.88e-01 1.97e-01h  1
 189 -2.2873492e-01 5.90e+00 2.36e+01  -6.0 2.62e+03  -9.0 4.78e-02 1.05e-01h  1
iter    objective    inf_pr   inf_du lg(mu)  ||d||  lg(rg) alpha_du alpha_pr  ls
 190 -2.2874353e-01 5.09e+00 9.50e+00  -6.0 2.75e+00  -5.9 1.00e+00 1.38e-01h  1
 191 -2.2880713e-01 7.51e-01 1.30e+00  -6.0 8.79e+00  -6.3 7.20e-01 8.48e-01h  1
 192 -2.2902727e-01 2.77e-01 1.99e+00  -6.0 2.53e+01  -6.8 1.00e+00 6.32e-01h  1
 193 -2.2952928e-01 1.20e-01 1.58e+00  -6.0 7.06e+01  -7.3 1.00e+00 5.66e-01h  1
 194 -2.3081098e-01 1.64e-01 9.03e-01  -6.0 1.77e+02  -7.8 5.30e-01 5.11e-01h  1
 195 -2.3223126e-01 2.79e-01 3.34e+00  -6.0 4.38e+02  -8.2 2.88e-01 2.32e-01h  1
 196 -2.3341983e-01 3.58e-01 8.70e+00  -6.0 1.42e+03  -8.7 1.61e-01 7.34e-02h  1
 197 -2.3432285e-01 9.81e+00 1.62e+01  -6.0 1.39e+04  -9.2 9.86e-02 4.60e-02h  1
 198 -2.3564289e-01 7.92e+00 1.51e+01  -6.0 8.24e+02  -8.8 5.72e-02 2.03e-01h  1
 199 -2.3635723e-01 9.61e+00 1.33e+01  -6.0 8.59e+01  -7.4 2.85e-01 7.70e-01h  1
iter    objective    inf_pr   inf_du lg(mu)  ||d||  lg(rg) alpha_du alpha_pr  ls
 200 -2.3710824e-01 3.08e+01 5.51e+01  -6.0 2.14e+02  -7.9 1.49e-01 3.00e-01h  1
 201 -2.3771277e-01 2.53e+01 7.11e+01  -6.0 3.39e+02  -8.4 1.00e+00 1.98e-01h  1
 202 -2.4050578e-01 8.64e+00 1.57e+01  -6.0 6.45e+02  -8.9 1.00e+00 6.42e-01h  1
 203 -2.4077751e-01 7.83e+00 9.09e+02  -6.0 2.28e+03  -9.3 4.59e-01 9.32e-02h  1
 204 -2.4185689e-01 4.32e+00 1.58e+02  -6.0 6.86e+02  -8.9 1.00e+00 6.09e-01h  1
 205 -2.4185231e-01 5.62e+00 4.44e+02  -6.0 5.46e+02  -8.5 3.06e-01 1.00e+00h  1
 206 -2.4357014e-01 2.54e+01 4.71e+02  -6.0 1.45e+03  -9.0 3.30e-01 7.57e-01h  1
 207 -2.4365407e-01 1.43e+01 1.87e+02  -6.0 1.09e+01  -6.7 8.59e-01 4.36e-01h  1
 208 -2.4381014e-01 5.26e-02 1.21e+00  -6.0 2.86e+01  -7.2 1.00e+00 1.00e+00h  1
 209 -2.4396641e-01 1.44e-01 4.46e-01  -6.0 6.97e+01  -7.7 1.00e+00 1.00e+00h  1
iter    objective    inf_pr   inf_du lg(mu)  ||d||  lg(rg) alpha_du alpha_pr  ls
 210 -2.4428371e-01 7.64e-01 1.70e+00  -6.0 2.25e+02  -8.2 1.00e+00 6.39e-01h  1
 211 -2.4479360e-01 2.10e+00 1.12e+01  -6.0 8.00e+02  -8.6 1.00e+00 3.51e-01h  1
 212 -2.4519915e-01 3.24e+00 6.57e+01  -6.0 3.52e+03  -9.1 7.43e-01 6.72e-02h  1
 213 -2.4634397e-01 8.23e+00 1.44e+01  -6.0 8.44e+02  -8.7 1.00e+00 6.54e-01h  1
 214 -2.4671433e-01 4.67e+00 1.31e+01  -6.0 6.58e+02  -9.2 1.00e+00 4.36e-01h  1
 215 -2.4721082e-01 9.62e+00 8.50e+00  -6.0 2.03e+03  -9.7 5.61e-01 3.14e-01h  1
 216 -2.4676561e-01 5.29e+01 1.77e+01  -6.0 2.61e+03  -9.2 1.15e-01 6.04e-01h  1
 217 -2.4775287e-01 3.39e+01 1.66e+01  -6.0 1.14e+03  -9.7 2.92e-01 3.58e-01h  1
 218 -2.4889736e-01 3.27e+01 2.13e+01  -6.0 3.24e+03 -10.2 4.16e-03 9.67e-01h  1
 219 -2.4880797e-01 2.76e+01 2.70e+03  -6.0 3.22e+03 -10.7 3.04e-02 1.51e-01h  1
iter    objective    inf_pr   inf_du lg(mu)  ||d||  lg(rg) alpha_du alpha_pr  ls
 220 -2.4878800e-01 2.70e+01 2.65e+03  -6.0 1.00e+04 -10.2 1.42e-02 2.22e-02h  4
 221 -2.4875322e-01 1.21e+01 1.68e+03  -6.0 3.25e+03 -10.7 1.00e+00 4.87e-01h  1
 222 -2.4876577e-01 1.06e+01 1.45e+03  -6.0 3.21e+02  -8.5 7.72e-03 1.27e-01h  1
 223 -2.4879071e-01 5.07e+00 6.30e+02  -6.0 3.31e+02  -9.0 1.11e-01 5.38e-01h  1
 224 -2.4894231e-01 1.07e+01 2.35e+02  -6.0 1.00e+03  -9.4 3.03e-04 5.80e-01H  1
 225 -2.4952733e-01 2.01e+01 2.28e+04  -6.0 4.52e+03  -9.9 1.45e-01 6.36e-01h  1
 226 -2.4919694e-01 1.24e+01 1.61e+04  -6.0 3.39e+03 -10.4 5.51e-01 3.81e-01h  1
 227 -2.4914568e-01 1.11e+01 1.44e+04  -6.0 1.23e+03 -10.0 5.39e-02 1.05e-01h  4
 228 -2.4862448e-01 2.96e+00 1.05e+02  -6.0 3.98e+02  -9.5 5.82e-01 1.00e+00h  1
 229 -2.4867138e-01 2.12e+00 7.36e+01  -6.0 3.08e+03 -10.0 8.02e-02 2.90e-01h  1
iter    objective    inf_pr   inf_du lg(mu)  ||d||  lg(rg) alpha_du alpha_pr  ls
 230 -2.4870019e-01 2.67e+00 5.20e+01  -6.0 1.80e+03  -9.6 5.90e-01 3.15e-01h  1
 231 -2.4870165e-01 2.65e+00 6.76e+02  -6.0 1.29e+04    -  8.60e-02 8.72e-03h  1
 232 -2.4877976e-01 4.64e+00 1.08e+03  -6.0 8.02e+04    -  2.02e-02 9.76e-03h  2
 233 -2.4880014e-01 5.17e+00 5.31e+02  -6.0 1.83e+04    -  6.23e-02 1.08e-01h  1
 234 -2.4906216e-01 1.48e+00 6.43e+04  -6.0 3.42e+02  -8.3 2.31e-02 7.15e-01f  1
 235 -2.4900895e-01 1.32e+00 5.73e+04  -6.0 5.82e+02  -8.7 2.14e-02 1.07e-01h  1
 236 -2.4913978e-01 1.38e+00 7.68e+02  -6.0 4.79e+01  -7.4 1.25e-01 9.97e-01f  1
 237 -2.4946302e-01 5.50e+00 7.41e+02  -6.0 9.90e+01  -7.9 3.95e-02 1.38e-01h  1
 238 -2.4954347e-01 5.70e+00 6.67e+02  -6.0 1.02e+02  -8.4 2.12e-01 3.84e-02h  1
 239 -2.5006165e-01 2.57e+01 4.55e+02  -6.0 2.76e+02  -8.8 3.22e-01 2.54e-01h  1
iter    objective    inf_pr   inf_du lg(mu)  ||d||  lg(rg) alpha_du alpha_pr  ls
 240 -2.5021588e-01 2.71e+01 3.01e+02  -6.0 1.73e+04    -  1.06e-01 2.36e-02h  1
 241 -2.5072789e-01 2.69e+01 1.19e+02  -6.0 1.55e+04    -  5.67e-02 3.24e-01h  1
 242 -2.5081012e-01 2.56e+01 1.51e+03  -6.0 9.75e+03    -  2.33e-02 4.72e-02h  1
 243 -2.5086919e-01 2.43e+01 1.24e+03  -6.0 3.73e+03    -  4.44e-01 4.66e-02h  1
 244 -2.5148256e-01 2.62e+01 5.09e+02  -6.0 3.51e+03    -  3.26e-01 5.21e-01h  1
 245 -2.5159318e-01 2.41e+01 8.27e+02  -6.0 2.45e+03    -  6.08e-02 7.90e-02h  1
 246 -2.5213930e-01 1.78e+01 2.57e+03  -6.0 1.44e+03    -  2.39e-01 3.82e-01h  1
 247 -2.5266673e-01 9.05e+00 1.13e+03  -6.0 1.01e+03    -  4.42e-01 5.54e-01h  1
 248 -2.5289513e-01 6.43e+00 7.36e+02  -6.0 6.90e+02    -  6.68e-01 3.42e-01h  1
 249 -2.5309184e-01 6.05e-01 1.53e+00  -6.0 1.05e+02  -9.3 1.00e+00 1.00e+00h  1
iter    objective    inf_pr   inf_du lg(mu)  ||d||  lg(rg) alpha_du alpha_pr  ls
 250 -2.5325884e-01 2.53e+01 3.62e+02  -6.0 3.47e+03    -  1.51e-01 3.54e-01h  1
 251 -2.5347249e-01 4.56e+00 1.02e+03  -6.0 5.32e+02    -  4.62e-01 1.00e+00h  1
 252 -2.5351004e-01 2.46e+00 1.71e+03  -6.0 5.05e+02    -  1.99e-01 4.80e-01h  1
 253 -2.5350787e-01 4.46e-01 2.22e+02  -6.0 1.57e+02    -  5.02e-02 1.00e+00f  1
 254 -2.5349528e-01 5.06e-02 2.31e-01  -6.0 6.07e+01    -  1.00e+00 1.00e+00h  1
 255 -2.5349992e-01 3.22e+00 1.68e+01  -6.0 4.22e+02    -  6.72e-01 1.00e+00h  1
 256 -2.5347987e-01 8.93e-01 5.48e-01  -6.0 2.23e+02    -  1.00e+00 1.00e+00h  1
 257 -2.5350271e-01 2.37e-01 1.15e-01  -6.0 1.44e+02    -  1.00e+00 1.00e+00h  1
 258 -2.5349032e-01 2.92e-02 2.36e-02  -6.0 4.25e+01    -  1.00e+00 1.00e+00h  1
 259 -2.5348899e-01 2.19e-04 1.83e-04  -6.0 3.46e+00    -  1.00e+00 1.00e+00h  1
iter    objective    inf_pr   inf_du lg(mu)  ||d||  lg(rg) alpha_du alpha_pr  ls
 260 -2.5348898e-01 1.05e-08 1.50e-08  -6.0 2.42e-02    -  1.00e+00 1.00e+00h  1
 261 -2.5395656e-01 9.11e-01 9.89e+00  -7.5 6.11e+03    -  1.43e-01 1.67e-01f  1
 262 -2.5415948e-01 1.09e+00 3.13e+01  -7.5 3.77e+03    -  2.69e-01 1.08e-01h  1
 263 -2.5451523e-01 1.81e+00 1.83e+01  -7.5 4.61e+03    -  1.37e-01 1.82e-01h  1
 264 -2.5489609e-01 6.81e+00 9.99e+00  -7.5 6.94e+03    -  7.45e-02 1.71e-01h  1
 265 -2.5539937e-01 1.76e+01 5.14e+01  -7.5 2.08e+03    -  1.27e-01 4.38e-01h  1
 266 -2.5552698e-01 1.59e+01 5.59e+01  -7.5 1.44e+03    -  3.24e-02 1.09e-01h  1
 267 -2.5558928e-01 1.45e+01 3.15e+01  -7.5 5.51e+02  -9.8 2.89e-01 8.82e-02h  1
 268 -2.5564614e-01 1.42e+01 2.81e+01  -7.5 2.77e+03    -  1.25e-01 6.59e-02h  1
 269 -2.5618469e-01 4.61e+01 5.94e+01  -7.5 2.01e+03    -  4.85e-02 7.08e-01h  1
iter    objective    inf_pr   inf_du lg(mu)  ||d||  lg(rg) alpha_du alpha_pr  ls
 270 -2.5626789e-01 4.14e+01 8.01e+03  -7.5 8.76e+02    -  1.59e-05 1.07e-01h  1
 271 -2.5642115e-01 3.41e+01 6.56e+03  -7.5 5.29e+02  -9.4 1.63e-01 1.81e-01h  1
 272 -2.5646761e-01 3.40e+01 6.32e+03  -7.5 6.03e+03    -  3.92e-02 3.67e-02h  1
 273 -2.5647705e-01 3.39e+01 6.30e+03  -7.5 1.36e+04    -  4.68e-02 5.89e-03h  1
 274 -2.5694146e-01 2.67e+01 1.20e+04  -7.5 1.26e+03    -  1.69e-03 5.14e-01h  1
 275 -2.5707793e-01 2.16e+01 9.70e+03  -7.5 1.11e+03    -  7.25e-02 1.89e-01h  1
 276 -2.5713306e-01 1.99e+01 8.93e+03  -7.5 5.40e+02    -  1.02e-01 7.99e-02h  1
 277 -2.5718566e-01 1.80e+01 8.05e+03  -7.5 7.96e+02    -  3.80e-01 9.84e-02h  1
 278 -2.5738812e-01 1.01e+01 4.52e+03  -7.5 4.52e+02  -9.8 9.16e-01 4.39e-01h  1
 279 -2.5738847e-01 1.01e+01 4.51e+03  -7.5 1.64e+03    -  4.49e-03 1.52e-03h  1
iter    objective    inf_pr   inf_du lg(mu)  ||d||  lg(rg) alpha_du alpha_pr  ls
 280 -2.5752337e-01 1.08e+01 7.83e+02  -7.5 9.29e+02    -  1.49e-01 8.26e-01h  1
 281 -2.5751467e-01 8.88e+00 8.77e+02  -7.5 5.57e+02    -  1.09e-03 2.01e-01h  1
 282 -2.5751037e-01 1.47e-03 2.69e+00  -7.5 7.62e+00  -6.7 1.72e-01 1.00e+00h  1
 283 -2.5751143e-01 1.17e-05 1.67e-02  -7.5 1.36e+00  -7.2 1.00e+00 1.00e+00h  1
 284 -2.5751939e-01 2.19e+00 2.85e-02  -7.5 3.38e+02    -  1.00e+00 1.00e+00h  1
 285 -2.5751687e-01 1.79e-02 4.01e-02  -7.5 2.87e+01    -  4.98e-01 1.00e+00h  1
 286 -2.5751658e-01 1.40e-04 3.51e-04  -7.5 2.71e+00    -  1.00e+00 1.00e+00h  1
 287 -2.5751659e-01 3.11e-10 5.80e-07  -7.5 4.27e-02    -  1.00e+00 1.00e+00h  1
 288 -2.5751659e-01 2.83e-10 2.25e-11  -7.5 2.44e-04    -  1.00e+00 1.00e+00h  1
 289 -2.5752063e-01 1.00e-02 6.01e+00  -9.0 3.08e+02    -  7.72e-01 1.18e-01h  1
iter    objective    inf_pr   inf_du lg(mu)  ||d||  lg(rg) alpha_du alpha_pr  ls
 290 -2.5752391e-01 3.63e-02 5.65e+00  -9.0 3.09e+02    -  8.83e-01 2.68e-01h  1
 291 -2.5752495e-01 5.62e-02 3.71e+00  -9.0 2.38e+02    -  1.00e+00 3.71e-01h  1
 292 -2.5752611e-01 9.19e-02 6.98e-02  -9.0 1.49e+02    -  1.00e+00 9.80e-01h  1
 293 -2.5752578e-01 2.89e-04 5.20e-06  -9.0 1.93e+00    -  1.00e+00 1.00e+00h  1
 294 -2.5752578e-01 8.46e-09 1.05e-10  -9.0 1.05e-02    -  1.00e+00 1.00e+00h  1

Number of Iterations....: 294

                                   (scaled)                 (unscaled)
Objective...............:  -2.5752578154041922e-01   -2.5752578154041922e-01
Dual infeasibility......:   1.0473938383270820e-10    1.0473938383270820e-10
Constraint violation....:   8.4567408631386343e-09    8.4567408631386343e-09
Complementarity.........:   9.6651340604719843e-10    9.6651340604719843e-10
Overall NLP error.......:   8.4567408631386343e-09    8.4567408631386343e-09


Number of objective function evaluations             = 897
Number of objective gradient evaluations             = 295
Number of equality constraint evaluations            = 897
Number of inequality constraint evaluations          = 898
Number of equality constraint Jacobian evaluations   = 297
Number of inequality constraint Jacobian evaluations = 297
Number of Lagrangian Hessian evaluations             = 294
Total CPU secs in IPOPT (w/o function evaluations)   =    758.516
Total CPU secs in NLP function evaluations           =     13.618

EXIT: Optimal Solution Found.
